Traveling Salesman Problem/TSP_generados/Aleatorio1620390974_11.tsp
NAME: Aleatorio1620390974_11.tsp
COMMENT: Randomly generated scenario
TYPE: TSP
DIMENSION: 11
EDGE_WEIGHT_TYPE: ATT
NODE_COORD_SECTION
1 22.35 34.29
2 25.87 42.67
3 13.89 29.67
4 33.7 37.19
5 4.21 29.03
6 1.13 19.38
7 46.97 12.09
8 12.29 35.2
9 36.12 13.74
10 48.37 6.75
11 38.53 41.29
