Traveling Salesman Problem/TSP_generados/Aleatorio1620390974_11.opt.tour
NAME: Aleatorio1620390974_11.opt.tour
COMMENT: Optimal solution for Aleatorio1620390974_11 (146.13197185276775)
TYPE: TOUR
DIMENSION: 11
TOUR_SECTION
1 2 4 11 7 10 9 6 5 3 8
-1
EOF
